1 1046 6
2 890 5
4 869 6
6 831 6
25 826 5
28 781 5
401 774 5



1 1055 6
2 883 5
4 806 6
57 801 5
79 800 6
105 799 5
141 796 6
216 767 6



1 1009 6
2 931 6
3 851 6
6 840 6
9 830 5
21 829 5
22 825 6
33 803 5
55 798 5
138 773 5
462 766 6
748 753 5



1 1012 5
2 883 5
3 846 5
4 821 6
20 811 6
44 796 5
201 781 6
607 775 5
705 770 5



1 926 6
2 902 6
3 857 6
6 852 6
7 851 6
12 801 6
37 788 5
93 782 5
121 779 5
123 775 5



